#######################################
### Exact MIP solver for the HHCRSP ###
#######################################
-- Instance file: new-instances/HHCRSP_75_15_93_0.8_C_C.txt
-- Max threads: 4
-- Time limit: 999999 seconds
-- Use initial solution: No
Trivial flow violations prevented generating 20327 variables.
Model exported.
Version identifier: 20.1.0.0 | 2020-11-10 | 9bedb6d68
CPXPARAM_Threads                                 4
CPXPARAM_TimeLimit                               999999
Parallel mode: deterministic, using up to 4 threads for concurrent optimization:
 * Starting dual Simplex on 1 thread...
 * Starting Barrier on 3 threads...
Tried aggregator 1 time.
LP Presolve eliminated 3066 rows and 744 columns.
Reduced LP has 21528 rows, 20746 columns, and 210383 nonzeros.
Presolve time = 0.10 sec. (57.75 ticks)
Symmetry aggregator did 16779 additional substitutions.
Initializing dual steep norms . . .

Iteration log . . .
Iteration:     1   Dual objective     =             0.333333
Iteration:   378   Dual objective     =           142.000000

Dual crossover.
  Dual:  Fixing 166 variables.
      165 DMoves:  Infeasibility  4.57412216e-14  Objective  1.42002460e+02
        0 DMoves:  Infeasibility  4.69069558e-14  Objective  1.42002460e+02
  Dual:  Pushed 6, exchanged 160.
  Primal:  Fixing 49 variables.
       48 PMoves:  Infeasibility  1.38777878e-16  Objective  1.42002460e+02
        0 PMoves:  Infeasibility  1.66533454e-16  Objective  1.42002460e+02
  Primal:  Pushed 26, exchanged 23.

Dual simplex solved model.


Solution status from MIP model:
-- Processing time: 0.199 sec.
-- Memory used: 84.8486 MB
-- Best bound: inf
-- Obj value: 142.002
-- Gap: inf%
-- Total distance: 426.007
-- Total tardiness: 0
-- Largest tardiness: 0
